50
150
95
94
88
88
88
86
85
84
83
79
73
72
72
72
71
70
64
63
61
58
55
53
53
52
51
51
51
48
48
46
45
40
39
38
36
36
35
33
32
28
25
24
24
23
23
23
22
22
20
20
